Linux optc-01-09 4.15.0-58-generic #64-Ubuntu SMP Tue Aug 6 11:12:41 UTC 2019 x86_64 x86_64 x86_64 GNU/Linux

top - 03:28:44 up 1 day, 17:29,  0 users,  load average: 0,34, 0,75, 0,87
Tasks: 292 gesamt,   1 laufend, 149 schlafend,   0 gestoppt,   0 Zombie
%CPU(s):  6,9 be,  0,3 sy,  0,0 ni, 92,8 un,  0,0 wa,  0,0 hi,  0,0 si,  0,0 st
KiB Spch : 97514992 gesamt, 95431744 frei,   651772 belegt,  1431480 Puff/Cache
KiB Swap:  8388604 gesamt,  8388604 frei,        0 belegt. 96121808 verfü Spch 

  PID USER      PR  NI    VIRT    RES    SHR S  %CPU %MEM     ZEIT+ BEFEHL
30252 bzfhende  20   0   52664   4124   3372 R   4,2  0,0   0:00.01 top
    1 root      20   0  233852   9392   6688 S   0,0  0,0   0:13.63 systemd
    2 root      20   0       0      0      0 S   0,0  0,0   0:00.14 kthreadd
    3 root      20   0       0      0      0 I   0,0  0,0   0:02.42 kworker/0:0
    4 root       0 -20       0      0      0 I   0,0  0,0   0:00.00 kworker/0:+
    6 root      20   0       0      0      0 I   0,0  0,0   0:00.00 kworker/u3+
    7 root       0 -20       0      0      0 I   0,0  0,0   0:00.00 mm_percpu_+
    8 root      20   0       0      0      0 S   0,0  0,0   0:00.01 ksoftirqd/0

hard time limit: 04:10:00
hard mem limit: 55100

SLURM jobID: 2182898

@01 /nfs/optimi/kombadon/IP/miplib3/p0033.mps.gz ===========
-----------------------------
Fr 23. Aug 03:28:44 CEST 2019
-----------------------------
@03 1566523724
@05 7200
SCIP version 6.0.0 [precision: 8 byte] [memory: block] [mode: optimized] [LP solver: CPLEX 12.8.0.0] [GitHash: 41ab6e0014]
Copyright (C) 2002-2018 Konrad-Zuse-Zentrum fuer Informationstechnik Berlin (ZIB)

External codes: 
  Readline 7.0         GNU library for command line editing (gnu.org/s/readline)
  CPLEX 12.8.0.0       Linear Programming Solver developed by IBM (www.cplex.com)
  CppAD 20180000.0     Algorithmic Differentiation of C++ algorithms developed by B. Bell (www.coin-or.org/CppAD)
  ZLIB 1.2.11          General purpose compression library by J. Gailly and M. Adler (zlib.net)
  GMP 6.1.2            GNU Multiple Precision Arithmetic Library developed by T. Granlund (gmplib.org)
  bliss 0.73p          Computing Graph Automorphism Groups by T. Junttila and P. Kaski (http://www.tcs.hut.fi/Software/bliss/)

user parameter file <scip.set> not found - using default parameters

SCIP> 
SCIP> set load /home/optimi/bzfhende/opti/scip-opti/check/../settings/enable_treeeprofile.set
loaded parameter file </home/optimi/bzfhende/opti/scip-opti/check/../settings/enable_treeprofile.set>
SCIP> set misc referencevalue 3.0890000000e+03
misc/referencevalue = 3089
SCIP> set limits time 7200
limits/time = 7200
SCIP> set limits nodes 2100000000
limits/nodes = 2100000000
SCIP> set limits memory 50000
limits/memory = 50000
SCIP> set lp advanced threads 1
lp/threads = 1
SCIP> set timing clocktype 1
timing/clocktype = 1
SCIP> set display freq 10000
display/freq = 10000
SCIP> set memory savefac 1.0
memory/savefac = 1
SCIP> set save /home/optimi/bzfhende/opti/scip-opti/check/treesize.estimation.jouurnal.3/bzfhende.MMMc.434_p0033.scip.M640.enable_treeprofile.set
saved parameter file </home/optimi/bzfhende/opti/scip-opti/check/treesize.estimation.journal.3/bzfhende.MMMc.434_p0033.scip.M640.enable_treeprofile.set>
SCIP> read /nfs/optimi/kombadon/IP/miplib3/p0033.mps.gz

read problem </nfs/optimi/kombadon/IP/miplib3/p0033.mps.gz>
============

original problem has 33 variables (33 bin, 0 int, 0 impl, 0 cont) and 16 constraints
SCIP> display parameters

number of parameters = 2448
non-default parameter settings:
display/freq = 10000
limits/time = 7200
limits/nodes = 2100000000
limits/memory = 50000
lp/threads = 1
memory/savefac = 1
misc/referencevalue = 3089
presolving/maxrestarts = 0
estimates/profile/enabled = TRUE
estimates/profile/maxdepthfactor = 10
estimates/profile/freq = 0

SCIP> optimize

Activating tree profile data collection
presolving:
(round 1, fast)       2 del vars, 2 del conss, 0 add conss, 0 chg bounds, 5 chg sides, 13 chg coeffs, 0 upgd conss, 0 impls, 4 clqs
(round 2, fast)       3 del vars, 2 del conss, 0 add conss, 0 chg bounds, 5 chg sides, 13 chg coeffs, 0 upgd conss, 0 impls, 4 clqs
(round 3, exhaustive) 3 del vars, 3 del conss, 0 add conss, 0 chg bounds, 5 chg sides, 13 chg coeffs, 0 upgd conss, 0 impls, 4 clqs
(round 4, exhaustive) 3 del vars, 3 del conss, 0 add conss, 0 chg bounds, 5 chg sides, 13 chg coeffs, 11 upgd conss, 0 impls, 4 clqs
(round 5, fast)       3 del vars, 3 del conss, 0 add conss, 0 chg bounds, 5 chg sides, 18 chg coeffs, 11 upgd conss, 0 impls, 4 clqs
(round 6, medium)     4 del vars, 3 del conss, 0 add conss, 0 chg bounds, 5 chg sides, 19 chg coeffs, 11 upgd conss, 0 impls, 4 clqs
(round 7, exhaustive) 4 del vars, 3 del conss, 0 add conss, 0 chg bounds, 5 chg sides, 19 chg coeffs, 12 upgd conss, 0 impls, 4 clqs
(round 8, fast)       5 del vars, 3 del conss, 0 add conss, 0 chg bounds, 5 chg sides, 19 chg coeffs, 12 upgd conss, 0 impls, 4 clqs
(round 9, fast)       5 del vars, 3 del conss, 0 add conss, 0 chg bounds, 5 chg sides, 20 chg coeffs, 12 upgd conss, 0 impls, 5 clqs
   (0.0s) probing cycle finished: starting next cycle
presolving (10 rounds: 10 fast, 5 medium, 4 exhaustive):
 5 deleted vars, 3 deleted constraints, 0 added constraints, 0 tightened bounds, 0 added holes, 5 changed sides, 20 changed coefficients
 0 implications, 8 cliques
presolved problem has 28 variables (28 bin, 0 int, 0 impl, 0 cont) and 13 constraints
      5 constraints of type <knapsack>
      4 constraints of type <setppc>
      1 constraints of type <linear>
      3 constraints of type <logicor>
transformed objective value is always integral (scale: 1)
Presolving Time: 0.00

 time | node  | left  |LP iter|LP it/n| mem |mdpt |frac |vars |cons |cols |rows |cuts |confs|strbr|  dualbound   | primalbound  |  gap   
  0.0s|     1 |     0 |    10 |     - |1043k|   0 |   6 |  28 |  15 |  28 |  13 |   0 |   3 |   0 | 2.839492e+03 |      --      |    Inf 
  0.0s|     1 |     0 |    39 |     - |1067k|   0 |   6 |  28 |  15 |  28 |  16 |   3 |   3 |   0 | 2.925674e+03 |      --      |    Inf 
  0.0s|     1 |     0 |    42 |     - |1075k|   0 |   6 |  28 |  15 |  28 |  18 |   5 |   3 |   0 | 2.928593e+03 |      --      |    Inf 
  0.0s|     1 |     0 |    44 |     - |1103k|   0 |   7 |  28 |  15 |  28 |  19 |   6 |   3 |   0 | 2.928593e+03 |      --      |    Inf 
  0.0s|     1 |     0 |    50 |     - |1126k|   0 |  12 |  28 |  15 |  28 |  20 |   7 |   3 |   0 | 2.938956e+03 |      --      |    Inf 
  0.0s|     1 |     0 |    59 |     - |1170k|   0 |  12 |  28 |  15 |  28 |  23 |  10 |   3 |   0 | 2.949296e+03 |      --      |    Inf 
  0.0s|     1 |     0 |    60 |     - |1173k|   0 |  13 |  28 |  15 |  28 |  24 |  11 |   3 |   0 | 2.949296e+03 |      --      |    Inf 
  0.0s|     1 |     0 |    61 |     - |1213k|   0 |  15 |  28 |  17 |  28 |  25 |  12 |   5 |   0 | 2.950046e+03 |      --      |    Inf 
  0.0s|     1 |     0 |    69 |     - |1253k|   0 |  14 |  28 |  17 |  28 |  27 |  14 |   5 |   0 | 2.956403e+03 |      --      |    Inf 
  0.0s|     1 |     0 |    73 |     - |1320k|   0 |  16 |  28 |  17 |  28 |  29 |  16 |   5 |   0 | 2.970642e+03 |      --      |    Inf 
  0.0s|     1 |     0 |    78 |     - |1380k|   0 |  14 |  28 |  17 |  28 |  31 |  18 |   5 |   0 | 2.996011e+03 |      --      |    Inf 
s 0.0s|     1 |     0 |    78 |     - |1381k|   0 |  14 |  28 |  17 |  28 |  31 |  18 |   5 |   0 | 2.996011e+03 | 3.597000e+03 |  20.06%
  0.0s|     1 |     0 |    81 |     - |1400k|   0 |  13 |  28 |  17 |  28 |  32 |  20 |   5 |   0 | 3.003872e+03 | 3.597000e+03 |  19.75%
b 0.0s|     1 |     0 |    81 |     - |1400k|   0 |  13 |  28 |  17 |  28 |  32 |  20 |   5 |   0 | 3.003872e+03 | 3.347000e+03 |  11.42%
  0.0s|     1 |     0 |    85 |     - |1403k|   0 |  15 |  28 |  17 |  28 |  33 |  21 |   5 |   0 | 3.066882e+03 | 3.347000e+03 |   9.13%
 time | node  | left  |LP iter|LP it/n| mem |mdpt |frac |vars |cons |cols |rows |cuts |confs|strbr|  dualbound   | primalbound  |  gap   
  0.0s|     1 |     0 |    87 |     - |1407k|   0 |  17 |  28 |  17 |  28 |  34 |  22 |   5 |   0 | 3.066882e+03 | 3.347000e+03 |   9.13%
  0.0s|     1 |     0 |    92 |     - |1415k|   0 |   4 |  28 |  18 |  28 |  35 |  23 |   6 |   0 | 3.078412e+03 | 3.347000e+03 |   8.72%
R 0.0s|     1 |     0 |    92 |     - |1415k|   0 |   4 |  28 |  18 |  28 |  35 |  23 |   6 |   0 | 3.078412e+03 | 3.164000e+03 |   2.78%
  0.0s|     1 |     0 |    96 |     - |1419k|   0 |  17 |  28 |  18 |  28 |  36 |  24 |   6 |   0 | 3.084814e+03 | 3.164000e+03 |   2.57%
  0.0s|     1 |     0 |    96 |     - |1419k|   0 |  17 |  28 |  19 |  28 |  36 |  24 |   7 |   0 | 3.084814e+03 | 3.164000e+03 |   2.57%
  0.0s|     1 |     0 |    97 |     - |1422k|   0 |   0 |  28 |  18 |  28 |  37 |  25 |   7 |   0 | 3.089000e+03 | 3.164000e+03 |   2.43%
  0.0s|     1 |     0 |    97 |     - |1422k|   0 |   0 |  28 |  18 |  28 |  37 |  25 |   7 |   0 | 3.089000e+03 | 3.164000e+03 |   2.43%
u 0.0s|     1 |     0 |    97 |     - |1423k|   0 |   - |  28 |  18 |  28 |  37 |   0 |   7 |   0 | 3.089000e+03 | 3.089000e+03 |   0.00%
SCIP nodes: 1 Estimation: -1
  0.0s|     1 |     0 |    97 |     - |1423k|   0 |   - |  28 |  18 |  28 |  37 |  25 |   7 |   0 | 3.089000e+03 | 3.089000e+03 |   0.00%
Report 1
Time Elapsed: 0.02
  Tree Data        : 1 nodes (1 visited, 0 inner, 1 leaves, 0 open), progress: 1.0000
Tree Estimation    :       estim       value       trend  resolution      smooth
  wbe              :          -1           -           -           -           -
  tree profile     :          -1           -           -           -           -
  gap              :           1     1.00000     1.00000           1           1
  progress         :           1     1.00000     1.00000           1           1
  leaf-frequency   :           1     0.50000     1.00000           1           1
  ssg              :           1     0.00000    -1.00000           1           1
  open-nodes       :           1     0.00000     0.00000           1           1
End of Report 1


SCIP Status        : problem is solved [optimal solution found]
Solving Time (sec) : 0.02
Solving Nodes      : 1
Primal Bound       : +3.08900000000000e+03 (5 solutions)
Dual Bound         : +3.08900000000000e+03
Gap                : 0.00 %

SCIP> display statistics

SCIP Status        : problem is solved [optimal solution found]
Total Time         :       0.02
  solving          :       0.02
  presolving       :       0.00 (included in solving)
  reading          :       0.00
  copying          :       0.00 (0 times copied the problem)
Original Problem   :
  Problem name     : P0033
  Variables        : 33 (33 binary, 0 integer, 0 implicit integer, 0 continuous)
  Constraints      : 16 initial, 16 maximal
  Objective        : minimize, 33 non-zeros (abs.min = 49, abs.max = 517)
Presolved Problem  :
  Problem name     : t_P0033
  Variables        : 28 (28 binary, 0 integer, 0 implicit integer, 0 continuous)
  Constraints      : 13 initial, 19 maximal
  Objective        : minimize, 28 non-zeros (abs.min = 49, abs.max = 500)
Presolvers         :   ExecTime  SetupTime  Calls  FixedVars   AggrVars   ChgTypes  ChgBounds   AddHoles    DelCons    AddCons   ChgSides   ChgCoefs
  boundshift       :       0.00       0.00      0          0          0          0          0          0          0          0          0          0
  convertinttobin  :       0.00       0.00      0          0          0          0          0          0          0          0          0          0
  domcol           :       0.00       0.00      1          0          0          0          0          0          0          0          0          0
  dualagg          :       0.00       0.00      0          0          0          0          0          0          0          0          0          0
  dualcomp         :       0.00       0.00      0          0          0          0          0          0          0          0          0          0
  dualinfer        :       0.00       0.00      0          0          0          0          0          0          0          0          0          0
  gateextraction   :       0.00       0.00      2          0          0          0          0          0          0          0          0          0
  implics          :       0.00       0.00      5          0          0          0          0          0          0          0          0          0
  inttobinary      :       0.00       0.00      0          0          0          0          0          0          0          0          0          0
  qpkktref         :       0.00       0.00      0          0          0          0          0          0          0          0          0          0
  redvub           :       0.00       0.00      0          0          0          0          0          0          0          0          0          0
  sparsify         :       0.00       0.00      1          0          0          0          0          0          0          0          0          0
  stuffing         :       0.00       0.00      0          0          0          0          0          0          0          0          0          0
  symbreak         :       0.00       0.00      0          0          0          0          0          0          0          0          0          0
  symmetry         :       0.00       0.00      0          0          0          0          0          0          0          0          0          0
  trivial          :       0.00       0.00     10          0          0          0          0          0          0          0          0          0
  tworowbnd        :       0.00       0.00      0          0          0          0          0          0          0          0          0          0
  dualfix          :       0.00       0.00     10          2          0          0          0          0          0          0          0          0
  genvbounds       :       0.00       0.00      0          0          0          0          0          0          0          0          0          0
  orbitalfixing    :       0.00       0.00      0          0          0          0          0          0          0          0          0          0
  probing          :       0.00       0.00      1          0          0          0          0          0          0          0          0          0
  pseudoobj        :       0.00       0.00      0          0          0          0          0          0          0          0          0          0
  vbounds          :       0.00       0.00      2          0          0          0          0          0          0          0          0          0
  knapsack         :       0.00       0.00     11          0          0          0          0          0          0          0          0          5
  setppc           :       0.00       0.00     11          0          1          0          0          0          0          0          0          1
  linear           :       0.00       0.00     14          0          1          0          0          0          3          0          5         13
  logicor          :       0.00       0.00     10          1          0          0          0          0          0          0          0          1
  benders          :       0.00       0.00      0          0          0          0          0          0          0          0          0          0
  components       :       0.00       0.00      1          0          0          0          0          0          0          0          0          0
  root node        :          -          -      -          2          -          -          2          -          -          -          -          -
Constraints        :     Number  MaxNumber  #Separate #Propagate    #EnfoLP    #EnfoRelax  #EnfoPS    #Check   #ResProp    Cutoffs    DomReds       Cuts    Applied      Conss   Children
  benderslp        :          0          0          0          0          0          0          0         24          0          0          0          0          0          0          0
  integral         :          0          0          0          0          0          0          0         24          0          0          0          0          0          0          0
  knapsack         :          5          5         17        241          0          0          0         19         14          4          0         63          7          0          0
  setppc           :          4          4         17        220          0          0          0         11         16          1          0          0          0          0          0
  linear           :          1          1         17        236          0          0          0          9          2         12          0          2          0          0          0
  logicor          :          3+         9         17         73          0          0          0          5          0          1          0          0          0          0          0
  benders          :          0          0          0          0          0          0          0          6          0          0          0          0          0          0          0
  countsols        :          0          0          0          0          0          0          0          6          0          0          0          0          0          0          0
  components       :          0          0          0          0          0          0          0          0          0          0          0          0          0          0          0
Constraint Timings :  TotalTime  SetupTime   Separate  Propagate     EnfoLP     EnfoPS     EnfoRelax   Check    ResProp    SB-Prop
  benderslp        :       0.00       0.00       0.00       0.00       0.00       0.00       0.00       0.00       0.00       0.00
  integral         :       0.00       0.00       0.00       0.00       0.00       0.00       0.00       0.00       0.00       0.00
  knapsack         :       0.00       0.00       0.00       0.00       0.00       0.00       0.00       0.00       0.00       0.00
  setppc           :       0.00       0.00       0.00       0.00       0.00       0.00       0.00       0.00       0.00       0.00
  linear           :       0.00       0.00       0.00       0.00       0.00       0.00       0.00       0.00       0.00       0.00
  logicor          :       0.00       0.00       0.00       0.00       0.00       0.00       0.00       0.00       0.00       0.00
  benders          :       0.00       0.00       0.00       0.00       0.00       0.00       0.00       0.00       0.00       0.00
  countsols        :       0.00       0.00       0.00       0.00       0.00       0.00       0.00       0.00       0.00       0.00
  components       :       0.00       0.00       0.00       0.00       0.00       0.00       0.00       0.00       0.00       0.00
Propagators        : #Propagate   #ResProp    Cutoffs    DomReds
  dualfix          :          2          0          0          0
  genvbounds       :          0          0          0          0
  nlobbt           :          0          0          0          0
  obbt             :          0          0          0          0
  orbitalfixing    :          0          0          0          0
  probing          :          0          0          0          0
  pseudoobj        :         24          0          0          0
  redcost          :         20          0          0          2
  rootredcost      :          0          0          0          0
  vbounds          :        187          0          0          0
Propagator Timings :  TotalTime  SetupTime   Presolve  Propagate    ResProp    SB-Prop
  dualfix          :       0.00       0.00       0.00       0.00       0.00       0.00
  genvbounds       :       0.00       0.00       0.00       0.00       0.00       0.00
  nlobbt           :       0.00       0.00       0.00       0.00       0.00       0.00
  obbt             :       0.00       0.00       0.00       0.00       0.00       0.00
  orbitalfixing    :       0.00       0.00       0.00       0.00       0.00       0.00
  probing          :       0.00       0.00       0.00       0.00       0.00       0.00
  pseudoobj        :       0.00       0.00       0.00       0.00       0.00       0.00
  redcost          :       0.00       0.00       0.00       0.00       0.00       0.00
  rootredcost      :       0.00       0.00       0.00       0.00       0.00       0.00
  vbounds          :       0.00       0.00       0.00       0.00       0.00       0.00
Conflict Analysis  :       Time      Calls    Success    DomReds  Conflicts   Literals    Reconvs ReconvLits   Dualrays   Nonzeros   LP Iters   (pool size: [10000,10000])
  propagation      :       0.00          6          6          -          8        4.0          0        0.0          -          -          -
  infeasible LP    :       0.00          0          0          -          0        0.0          0        0.0          0        0.0          0
  bound exceed. LP :       0.00          0          0          -          0        0.0          0        0.0          0        0.0          0
  strong branching :       0.00          0          0          -          0        0.0          0        0.0          -          -          0
  pseudo solution  :       0.00          0          0          -          0        0.0          0        0.0          -          -          -
  applied globally :       0.00          -          -          0          6        3.5          -          -          0          -          -
  applied locally  :          -          -          -          0          1        6.0          -          -          0          -          -
Separators         :   ExecTime  SetupTime      Calls    Cutoffs    DomReds       Cuts    Applied      Conss
  cut pool         :       0.00                    32          -          -        156          -          -    (maximal pool size: 279)
  aggregation      :       0.00       0.00         16          0          0          0          0          0
  cgmip            :       0.00       0.00          0          0          0          0          0          0
  clique           :       0.00       0.00         16          0          0          0          0          0
  closecuts        :       0.00       0.00          0          0          0          0          0          0
  cmir             :       0.00       0.00          0          0          0          0          8          0
  convexproj       :       0.00       0.00          0          0          0          0          0          0
  disjunctive      :       0.00       0.00          0          0          0          0          0          0
  eccuts           :       0.00       0.00          0          0          0          0          0          0
  flowcover        :       0.00       0.00          0          0          0          0          2          0
  gauge            :       0.00       0.00          0          0          0          0          0          0
  gomory           :       0.00       0.00         10          0          0          0          4          0
  impliedbounds    :       0.00       0.00         16          0          0          0          0          0
  intobj           :       0.00       0.00          0          0          0          0          0          0
  mcf              :       0.00       0.00          1          0          0          0          0          0
  oddcycle         :       0.00       0.00          0          0          0          0          0          0
  rapidlearning    :       0.00       0.00          0          0          0          0          0          0
  strongcg         :       0.01       0.00         16          0          0          0          4          0
  zerohalf         :       0.00       0.00         16          0          0          0          0          0
Pricers            :   ExecTime  SetupTime      Calls       Vars
  problem variables:       0.00          -          0          0
Branching Rules    :   ExecTime  SetupTime   BranchLP  BranchExt   BranchPS    Cutoffs    DomReds       Cuts      Conss   Children
  allfullstrong    :       0.00       0.00          0          0          0          0          0          0          0          0
  cloud            :       0.00       0.00          0          0          0          0          0          0          0          0
  distribution     :       0.00       0.00          0          0          0          0          0          0          0          0
  fullstrong       :       0.00       0.00          0          0          0          0          0          0          0          0
  inference        :       0.00       0.00          0          0          0          0          0          0          0          0
  leastinf         :       0.00       0.00          0          0          0          0          0          0          0          0
  lookahead        :       0.00       0.00          0          0          0          0          0          0          0          0
  mostinf          :       0.00       0.00          0          0          0          0          0          0          0          0
  multaggr         :       0.00       0.00          0          0          0          0          0          0          0          0
  nodereopt        :       0.00       0.00          0          0          0          0          0          0          0          0
  pscost           :       0.00       0.00          0          0          0          0          0          0          0          0
  random           :       0.00       0.00          0          0          0          0          0          0          0          0
  relpscost        :       0.00       0.00          0          0          0          0          0          0          0          0
Primal Heuristics  :   ExecTime  SetupTime      Calls      Found       Best
  LP solutions     :       0.00          -          -          0          0
  relax solutions  :       0.00          -          -          0          0
  pseudo solutions :       0.00          -          -          0          0
  strong branching :       0.00          -          -          0          0
  actconsdiving    :       0.00       0.00          0          0          0
  alns             :       0.00       0.00          0          0          0
  bound            :       0.00       0.00          0          0          0
  clique           :       0.00       0.00          1          0          0
  coefdiving       :       0.00       0.00          0          0          0
  completesol      :       0.00       0.00          0          0          0
  conflictdiving   :       0.00       0.00          0          0          0
  crossover        :       0.00       0.00          0          0          0
  dins             :       0.00       0.00          0          0          0
  distributiondivin:       0.00       0.00          0          0          0
  dualval          :       0.00       0.00          0          0          0
  farkasdiving     :       0.00       0.00          1          1          1
  feaspump         :       0.00       0.00          1          0          0
  fixandinfer      :       0.00       0.00          0          0          0
  fracdiving       :       0.00       0.00          0          0          0
  gins             :       0.00       0.00          0          0          0
  guideddiving     :       0.00       0.00          0          0          0
  indicator        :       0.00       0.00          0          0          0
  intdiving        :       0.00       0.00          0          0          0
  intshifting      :       0.00       0.00          0          0          0
  linesearchdiving :       0.00       0.00          0          0          0
  localbranching   :       0.00       0.00          0          0          0
  locks            :       0.00       0.00          1          0          0
  lpface           :       0.00       0.00          0          0          0
  mpec             :       0.00       0.00          0          0          0
  multistart       :       0.00       0.00          0          0          0
  mutation         :       0.00       0.00          0          0          0
  nlpdiving        :       0.00       0.00          0          0          0
  objpscostdiving  :       0.00       0.00          0          0          0
  octane           :       0.00       0.00          0          0          0
  ofins            :       0.00       0.00          0          0          0
  oneopt           :       0.00       0.00          2          1          1
  proximity        :       0.00       0.00          0          0          0
  pscostdiving     :       0.00       0.00          0          0          0
  randrounding     :       0.01       0.00         16          0          0
  rens             :       0.00       0.00          0          0          0
  reoptsols        :       0.00       0.00          0          0          0
  repair           :       0.00       0.00          0          0          0
  rins             :       0.00       0.00          0          0          0
  rootsoldiving    :       0.00       0.00          0          0          0
  rounding         :       0.00       0.00         16          1          1
  shiftandpropagate:       0.00       0.00          1          0          0
  shifting         :       0.00       0.00         16          2          1
  simplerounding   :       0.00       0.00         19          0          0
  subnlp           :       0.00       0.00          0          0          0
  trivial          :       0.00       0.00          2          0          0
  trivialnegation  :       0.00       0.00          0          0          0
  trysol           :       0.00       0.00          0          0          0
  twoopt           :       0.00       0.00          0          0          0
  undercover       :       0.00       0.00          0          0          0
  vbounds          :       0.00       0.00          0          0          0
  veclendiving     :       0.00       0.00          0          0          0
  zeroobj          :       0.00       0.00          0          0          0
  zirounding       :       0.00       0.00          0          0          0
  other solutions  :          -          -          -          0          -
Diving Statistics  :      Calls      Nodes   LP Iters Backtracks  Conflicts   MinDepth   MaxDepth   AvgDepth  RoundSols  NLeafSols  MinSolDpt  MaxSolDpt  AvgSolDpt
  actconsdiving    :          0          -          -          -          -          -          -          -          -          -          -          -          -
  coefdiving       :          0          -          -          -          -          -          -          -          -          -          -          -          -
  conflictdiving   :          0          -          -          -          -          -          -          -          -          -          -          -          -
  distributiondivin:          0          -          -          -          -          -          -          -          -          -          -          -          -
  farkasdiving     :          1          0          0          0          0          1          1        1.0          0          1          1          1        1.0
  fracdiving       :          0          -          -          -          -          -          -          -          -          -          -          -          -
  guideddiving     :          0          -          -          -          -          -          -          -          -          -          -          -          -
  linesearchdiving :          0          -          -          -          -          -          -          -          -          -          -          -          -
  pscostdiving     :          0          -          -          -          -          -          -          -          -          -          -          -          -
  veclendiving     :          0          -          -          -          -          -          -          -          -          -          -          -          -
Neighborhoods      :      Calls  SetupTime  SolveTime SolveNodes       Sols       Best       Exp3  EpsGreedy        UCB TgtFixRate  Opt  Inf Node Stal  Sol  Usr Othr Actv
  rens             :          0       0.00       0.00          0          0          0    0.00000   -1.00000    1.00000      0.900    0    0    0    0    0    0    0    1
  rins             :          0       0.00       0.00          0          0          0    0.00000   -1.00000    1.00000      0.900    0    0    0    0    0    0    0    1
  mutation         :          0       0.00       0.00          0          0          0    0.00000   -1.00000    1.00000      0.900    0    0    0    0    0    0    0    1
  localbranching   :          0       0.00       0.00          0          0          0    0.00000   -1.00000    1.00000      0.900    0    0    0    0    0    0    0    1
  crossover        :          0       0.00       0.00          0          0          0    0.00000   -1.00000    1.00000      0.900    0    0    0    0    0    0    0    1
  proximity        :          0       0.00       0.00          0          0          0    0.00000   -1.00000    1.00000      0.900    0    0    0    0    0    0    0    1
  zeroobjective    :          0       0.00       0.00          0          0          0    0.00000   -1.00000    1.00000      0.900    0    0    0    0    0    0    0    1
  dins             :          0       0.00       0.00          0          0          0    0.00000   -1.00000    1.00000      0.900    0    0    0    0    0    0    0    1
LP                 :       Time      Calls Iterations  Iter/call   Iter/sec  Time-0-It Calls-0-It    ItLimit
  primal LP        :       0.00          1          0       0.00          -       0.00          1
  dual LP          :       0.00         19         74       4.35          -       0.00          2
  lex dual LP      :       0.00          0          0       0.00          -
  barrier LP       :       0.00          0          0       0.00          -       0.00          0
  resolve instable :       0.00          0          0       0.00          -
  diving/probing LP:       0.00         12         23       1.92          -
  strong branching :       0.00          0          0       0.00          -          -          -          0
    (at root node) :          -          0          0       0.00          -
  conflict analysis:       0.00          0          0       0.00          -
B&B Tree           :
  number of runs   :          1
  nodes            :          1 (0 internal, 1 leaves)
  feasible leaves  :          0
  infeas. leaves   :          0
  objective leaves :          1
  nodes (total)    :          1 (0 internal, 1 leaves)
  nodes left       :          0
  max depth        :          0
  max depth (total):          0
  backtracks       :          0 (0.0%)
  early backtracks :          0 (0.0%)
  nodes exc. ref.  :          0 (0.0%)
  delayed cutoffs  :          0
  repropagations   :          0 (0 domain reductions, 0 cutoffs)
  avg switch length:       2.00
  switching time   :       0.00
Root Node          :
  First LP value   : +2.83949183829138e+03
  First LP Iters   :         10
  First LP Time    :       0.00
  Final Dual Bound : +3.08900000000000e+03
  Final Root Iters :         97
  Root LP Estimate :                     -
Solution           :
  Solutions found  :          5 (4 improvements)
  First Solution   : +3.59700000000000e+03   (in run 1, after 1 nodes, 0.01 seconds, depth 0, found by <shifting>)
  Gap First Sol.   :      20.06 %
  Gap Last Sol.    :       0.00 %
  Primal Bound     : +3.08900000000000e+03   (in run 1, after 1 nodes, 0.02 seconds, depth 1, found by <farkasdiving>)
  Dual Bound       : +3.08900000000000e+03
  Gap              :       0.00 %
  Avg. Gap         :      51.25 % (1.03 primal-dual integral)
  Tree Data        : 1 nodes (1 visited, 0 inner, 1 leaves, 0 open), progress: 1.0000
Tree Estimation    :       estim       value       trend  resolution      smooth
  wbe              :           1           -           -           -           -
  tree profile     :          -1           -           -           -           -
  gap              :           1     1.00000     1.00000           1           1
  progress         :           1     1.00000     1.00000           1           1
  leaf-frequency   :           1     0.50000     1.00000           1           1
  ssg              :           1     0.00000    -1.00000           1           1
  open-nodes       :           1     0.00000     0.00000           1           1


SCIP> checksol

check best solution
solution is feasible in original problem
Violation          :    absolute    relative
  bounds           : 1.33227e-15 1.33227e-15
  integrality      : 1.33227e-15           -
  LP rows          : 0.00000e+00 0.00000e+00
  constraints      : 0.00000e+00 0.00000e+00

SCIP> write sol /local/tmp/bzfhende-tmpdir/bzfhende.MMMc.434_p0033.scip.M640.enabble_treeprofile.sol

written solution information to file </local/tmp/bzfhende-tmpdir/bzfhende.MMMc.434_p0033.scip.M640.enable_treeprofile.sol>

SCIP> quit

Disabling tree profile data collection
Read MPS: 1
MIP has 33 vars and 16 constraints
Read SOL: 1
Objective value computed by solver: 3089

Integrality tolerance: 1/10000
Linear tolerance: 1/10000
Objective tolerance: 1/10000

Check SOL: Integrality 1 Constraints 1 Objective 1
Maximum violations: Integrality 2e-15 Constraints 0 Objective 3.42e-13
@04 1566523724
-----------------------------
Fr 23. Aug 03:28:44 CEST 2019
-----------------------------

=ready=
